(set-info :source |fuzzsmt|)
(set-info :smt-lib-version 2.0)
(set-info :category "random")
(set-logic ALL)
(declare-const BAV1 Bool)
(declare-const BAV2 Bool)
(declare-const BAV3 Bool)
(declare-const BAV4 Bool)
(declare-const BAV5 Bool)
(declare-const BAV6 Bool)
(declare-const BAV7 Bool)
(declare-const BAV8 Bool)
(declare-const BAV9 Bool)
(declare-const BAV10 Bool)
(declare-const GEN11 Int)
(declare-const GEN10 Int)
(declare-const GEN9 Int)
(declare-const GEN8 Int)
(declare-const GEN7 Int)
(declare-const GEN6 Int)
(declare-const GEN5 Int)
(declare-const GEN4 Int)
(declare-const GEN3 Int)
(declare-const GEN2 Int)
(declare-const GEN1 Int)
(declare-fun _substvar_43_ () (_ BitVec 3))
(declare-fun a2 () (Array (_ BitVec 8) (_ BitVec 1)))
(assert (ite (= (ite (=> true (bvslt (select a2 ((_ sign_extend 7) (ite (bvult (_ bv53513 16) ((_ zero_extend 13) _substvar_43_)) (_ bv1 1) (_ bv0 1)))) (select a2 (_ bv0 8)))) false true) (=> (ite (and (bvslt (_ bv0 1) (select (store a2 ((_ zero_extend 5) _substvar_43_) (_ bv0 1)) ((_ sign_extend 5) _substvar_43_))) (bvslt (_ bv0 1) (select (store a2 ((_ zero_extend 5) _substvar_43_) (_ bv0 1)) ((_ sign_extend 5) _substvar_43_)))) true false) false)) (bvult (select a2 (_ bv0 8)) (select (store a2 ((_ zero_extend 5) _substvar_43_) (_ bv0 1)) ((_ sign_extend 5) _substvar_43_))) (and (= true (= (not (= (=> true (bvult (_ bv0 1) (select a2 ((_ sign_extend 7) (ite (bvult (_ bv53513 16) ((_ zero_extend 13) _substvar_43_)) (_ bv1 1) (_ bv0 1)))))) true)) false)) (and (bvslt (select (store a2 ((_ zero_extend 5) _substvar_43_) (_ bv0 1)) ((_ sign_extend 5) _substvar_43_)) (ite (bvult (_ bv53513 16) ((_ zero_extend 13) _substvar_43_)) (_ bv1 1) (_ bv0 1))) (bvslt (select (store a2 ((_ zero_extend 5) _substvar_43_) (_ bv0 1)) ((_ sign_extend 5) _substvar_43_)) (ite (bvult (_ bv53513 16) ((_ zero_extend 13) _substvar_43_)) (_ bv1 1) (_ bv0 1)))))))
(assert (= BAV1 (= (ite (=> true (bvslt (select a2 ((_ sign_extend 7) (ite (bvult (_ bv53513 16) ((_ zero_extend 13) _substvar_43_)) (_ bv1 1) (_ bv0 1)))) (select a2 (_ bv0 8)))) false true) (=> (ite (and (bvslt (_ bv0 1) (select (store a2 ((_ zero_extend 5) _substvar_43_) (_ bv0 1)) ((_ sign_extend 5) _substvar_43_))) (bvslt (_ bv0 1) (select (store a2 ((_ zero_extend 5) _substvar_43_) (_ bv0 1)) ((_ sign_extend 5) _substvar_43_)))) true false) false))))
(assert (= BAV2 (=> true (bvslt (select a2 ((_ sign_extend 7) (ite (bvult (_ bv53513 16) ((_ zero_extend 13) _substvar_43_)) (_ bv1 1) (_ bv0 1)))) (select a2 (_ bv0 8))))))
(assert (= BAV3 (=> (ite (and (bvslt (_ bv0 1) (select (store a2 ((_ zero_extend 5) _substvar_43_) (_ bv0 1)) ((_ sign_extend 5) _substvar_43_))) (bvslt (_ bv0 1) (select (store a2 ((_ zero_extend 5) _substvar_43_) (_ bv0 1)) ((_ sign_extend 5) _substvar_43_)))) true false) false)))
(assert (= BAV4 (and (bvslt (_ bv0 1) (select (store a2 ((_ zero_extend 5) _substvar_43_) (_ bv0 1)) ((_ sign_extend 5) _substvar_43_))) (bvslt (_ bv0 1) (select (store a2 ((_ zero_extend 5) _substvar_43_) (_ bv0 1)) ((_ sign_extend 5) _substvar_43_))))))
(assert (= BAV5 (and (= true (= (not (= (=> true (bvult (_ bv0 1) (select a2 ((_ sign_extend 7) (ite (bvult (_ bv53513 16) ((_ zero_extend 13) _substvar_43_)) (_ bv1 1) (_ bv0 1)))))) true)) false)) (and (bvslt (select (store a2 ((_ zero_extend 5) _substvar_43_) (_ bv0 1)) ((_ sign_extend 5) _substvar_43_)) (ite (bvult (_ bv53513 16) ((_ zero_extend 13) _substvar_43_)) (_ bv1 1) (_ bv0 1))) (bvslt (select (store a2 ((_ zero_extend 5) _substvar_43_) (_ bv0 1)) ((_ sign_extend 5) _substvar_43_)) (ite (bvult (_ bv53513 16) ((_ zero_extend 13) _substvar_43_)) (_ bv1 1) (_ bv0 1)))))))
(assert (= BAV6 (= true (= (not (= (=> true (bvult (_ bv0 1) (select a2 ((_ sign_extend 7) (ite (bvult (_ bv53513 16) ((_ zero_extend 13) _substvar_43_)) (_ bv1 1) (_ bv0 1)))))) true)) false))))
(assert (= BAV7 (= (not (= (=> true (bvult (_ bv0 1) (select a2 ((_ sign_extend 7) (ite (bvult (_ bv53513 16) ((_ zero_extend 13) _substvar_43_)) (_ bv1 1) (_ bv0 1)))))) true)) false)))
(assert (= BAV8 (= (=> true (bvult (_ bv0 1) (select a2 ((_ sign_extend 7) (ite (bvult (_ bv53513 16) ((_ zero_extend 13) _substvar_43_)) (_ bv1 1) (_ bv0 1)))))) true)))
(assert (= BAV9 (=> true (bvult (_ bv0 1) (select a2 ((_ sign_extend 7) (ite (bvult (_ bv53513 16) ((_ zero_extend 13) _substvar_43_)) (_ bv1 1) (_ bv0 1))))))))
(assert (= BAV10 (and (bvslt (select (store a2 ((_ zero_extend 5) _substvar_43_) (_ bv0 1)) ((_ sign_extend 5) _substvar_43_)) (ite (bvult (_ bv53513 16) ((_ zero_extend 13) _substvar_43_)) (_ bv1 1) (_ bv0 1))) (bvslt (select (store a2 ((_ zero_extend 5) _substvar_43_) (_ bv0 1)) ((_ sign_extend 5) _substvar_43_)) (ite (bvult (_ bv53513 16) ((_ zero_extend 13) _substvar_43_)) (_ bv1 1) (_ bv0 1))))))
(check-sat)
(get-model)